Route #1: 1 56 2 50 49 34 14 6 45 22 4 26 52 1
Route #2: 1 41 36 55 30 5 47 24 17 28 25 1
Route #3: 1 38 40 15 23 43 3 51 53 8 1
Route #4: 1 11 46 32 12 16 1
Route #5: 1 57 27 42 20 18 35 19 1
Route #6: 1 29 9 13 54 39 37 10 1
Route #7: 1 31 48 33 44 21 1
cost 1288
